c Created with the Wolfram Language : www.wolfram.com
c 
p edge 90 794
e 1 3
e 3 4
e 6 7
e 2 9
e 3 9
e 8 9
e 6 10
e 3 11
e 8 11
e 1 12
e 5 12
e 8 12
e 5 13
e 8 13
e 2 14
e 3 14
e 8 14
e 11 14
e 12 16
e 7 17
e 12 17
e 13 17
e 14 17
e 6 18
e 7 18
e 12 18
e 10 19
e 12 19
e 5 20
e 6 20
e 14 20
e 15 20
e 16 20
e 19 20
e 19 21
e 1 22
e 5 22
e 6 22
e 7 22
e 8 22
e 17 22
e 18 22
e 20 22
e 4 23
e 12 23
e 15 23
e 14 24
e 15 24
e 16 24
e 17 24
e 4 25
e 8 25
e 9 25
e 12 25
e 15 25
e 17 25
e 18 25
e 7 26
e 18 26
e 21 26
e 22 26
e 1 27
e 11 27
e 12 27
e 24 27
e 25 27
e 26 27
e 5 28
e 10 28
e 12 28
e 18 28
e 25 28
e 27 28
e 3 29
e 9 29
e 12 29
e 18 29
e 20 29
e 22 29
e 10 30
e 14 30
e 21 30
e 22 30
e 23 30
e 25 30
e 27 30
e 1 31
e 2 31
e 5 31
e 9 31
e 16 31
e 17 31
e 21 31
e 6 32
e 7 32
e 10 32
e 11 32
e 16 32
e 21 32
e 25 32
e 26 32
e 29 32
e 4 33
e 7 33
e 12 33
e 18 33
e 20 33
e 22 33
e 5 34
e 8 34
e 12 34
e 15 34
e 16 34
e 21 34
e 24 34
e 28 34
e 30 34
e 31 34
e 7 35
e 10 35
e 18 35
e 21 35
e 22 35
e 23 35
e 29 35
e 34 35
e 2 36
e 15 36
e 20 36
e 22 36
e 24 36
e 3 37
e 6 37
e 12 37
e 14 37
e 19 37
e 24 37
e 30 37
e 4 38
e 8 38
e 15 38
e 17 38
e 29 38
e 31 38
e 32 38
e 12 39
e 22 39
e 27 39
e 28 39
e 31 39
e 33 39
e 6 40
e 27 40
e 11 41
e 15 41
e 18 41
e 20 41
e 21 41
e 31 41
e 32 41
e 36 41
e 37 41
e 38 41
e 3 42
e 6 42
e 9 42
e 30 42
e 31 42
e 32 42
e 33 42
e 41 42
e 1 43
e 9 43
e 11 43
e 12 43
e 20 43
e 27 43
e 28 43
e 30 43
e 42 43
e 3 44
e 10 44
e 22 44
e 31 44
e 36 44
e 37 44
e 39 44
e 40 44
e 42 44
e 2 45
e 16 45
e 24 45
e 28 45
e 30 45
e 34 45
e 36 45
e 38 45
e 39 45
e 42 45
e 18 46
e 23 46
e 24 46
e 33 46
e 35 46
e 36 46
e 44 46
e 1 47
e 3 47
e 5 47
e 8 47
e 14 47
e 17 47
e 22 47
e 26 47
e 29 47
e 34 47
e 42 47
e 43 47
e 1 48
e 3 48
e 7 48
e 8 48
e 16 48
e 18 48
e 20 48
e 26 48
e 28 48
e 34 48
e 38 48
e 9 49
e 10 49
e 25 49
e 27 49
e 29 49
e 36 49
e 41 49
e 46 49
e 48 49
e 1 50
e 4 50
e 5 50
e 8 50
e 21 50
e 22 50
e 24 50
e 25 50
e 30 50
e 40 50
e 45 50
e 7 51
e 8 51
e 11 51
e 15 51
e 17 51
e 20 51
e 22 51
e 23 51
e 25 51
e 30 51
e 38 51
e 39 51
e 45 51
e 46 51
e 48 51
e 49 51
e 3 52
e 4 52
e 7 52
e 13 52
e 14 52
e 15 52
e 16 52
e 17 52
e 18 52
e 19 52
e 21 52
e 34 52
e 35 52
e 37 52
e 41 52
e 2 53
e 9 53
e 10 53
e 14 53
e 15 53
e 16 53
e 17 53
e 18 53
e 21 53
e 22 53
e 23 53
e 24 53
e 26 53
e 41 53
e 44 53
e 47 53
e 1 54
e 2 54
e 4 54
e 10 54
e 11 54
e 12 54
e 19 54
e 20 54
e 23 54
e 25 54
e 29 54
e 32 54
e 40 54
e 41 54
e 42 54
e 44 54
e 45 54
e 48 54
e 51 54
e 3 55
e 5 55
e 7 55
e 10 55
e 21 55
e 35 55
e 37 55
e 40 55
e 49 55
e 51 55
e 52 55
e 4 56
e 6 56
e 7 56
e 8 56
e 9 56
e 14 56
e 25 56
e 30 56
e 49 56
e 9 57
e 18 57
e 26 57
e 28 57
e 30 57
e 45 57
e 53 57
e 54 57
e 10 58
e 13 58
e 18 58
e 22 58
e 23 58
e 26 58
e 36 58
e 42 58
e 48 58
e 51 58
e 53 58
e 54 58
e 56 58
e 4 59
e 5 59
e 15 59
e 17 59
e 27 59
e 32 59
e 36 59
e 44 59
e 46 59
e 2 60
e 6 60
e 9 60
e 12 60
e 25 60
e 28 60
e 33 60
e 36 60
e 40 60
e 44 60
e 46 60
e 47 60
e 50 60
e 56 60
e 6 61
e 20 61
e 24 61
e 25 61
e 28 61
e 38 61
e 46 61
e 50 61
e 51 61
e 55 61
e 1 62
e 6 62
e 7 62
e 9 62
e 11 62
e 12 62
e 17 62
e 23 62
e 24 62
e 28 62
e 31 62
e 32 62
e 36 62
e 41 62
e 44 62
e 47 62
e 49 62
e 4 63
e 10 63
e 20 63
e 29 63
e 35 63
e 38 63
e 40 63
e 50 63
e 52 63
e 53 63
e 59 63
e 61 63
e 1 64
e 7 64
e 10 64
e 13 64
e 21 64
e 23 64
e 33 64
e 36 64
e 39 64
e 41 64
e 45 64
e 51 64
e 56 64
e 58 64
e 4 65
e 6 65
e 17 65
e 19 65
e 32 65
e 34 65
e 37 65
e 48 65
e 50 65
e 52 65
e 55 65
e 4 66
e 12 66
e 14 66
e 17 66
e 23 66
e 36 66
e 38 66
e 39 66
e 45 66
e 47 66
e 50 66
e 56 66
e 61 66
e 62 66
e 64 66
e 4 67
e 6 67
e 13 67
e 18 67
e 26 67
e 31 67
e 34 67
e 35 67
e 40 67
e 47 67
e 59 67
e 4 68
e 16 68
e 26 68
e 39 68
e 47 68
e 49 68
e 53 68
e 56 68
e 58 68
e 64 68
e 5 69
e 6 69
e 8 69
e 13 69
e 17 69
e 30 69
e 34 69
e 57 69
e 60 69
e 63 69
e 16 70
e 18 70
e 35 70
e 51 70
e 53 70
e 55 70
e 56 70
e 3 71
e 7 71
e 12 71
e 14 71
e 20 71
e 43 71
e 44 71
e 49 71
e 50 71
e 54 71
e 65 71
e 2 72
e 6 72
e 13 72
e 36 72
e 41 72
e 47 72
e 50 72
e 57 72
e 65 72
e 68 72
e 3 73
e 5 73
e 14 73
e 20 73
e 26 73
e 27 73
e 30 73
e 31 73
e 32 73
e 34 73
e 41 73
e 44 73
e 46 73
e 48 73
e 50 73
e 64 73
e 65 73
e 5 74
e 6 74
e 8 74
e 11 74
e 20 74
e 22 74
e 23 74
e 29 74
e 34 74
e 36 74
e 41 74
e 47 74
e 52 74
e 61 74
e 62 74
e 63 74
e 67 74
e 68 74
e 1 75
e 2 75
e 6 75
e 7 75
e 10 75
e 17 75
e 27 75
e 32 75
e 35 75
e 46 75
e 50 75
e 51 75
e 57 75
e 65 75
e 70 75
e 74 75
e 1 76
e 6 76
e 11 76
e 18 76
e 25 76
e 32 76
e 34 76
e 38 76
e 40 76
e 45 76
e 46 76
e 49 76
e 55 76
e 66 76
e 74 76
e 75 76
e 5 77
e 7 77
e 21 77
e 26 77
e 32 77
e 37 77
e 39 77
e 41 77
e 48 77
e 49 77
e 51 77
e 64 77
e 71 77
e 72 77
e 4 78
e 6 78
e 8 78
e 12 78
e 23 78
e 31 78
e 38 78
e 40 78
e 45 78
e 46 78
e 55 78
e 56 78
e 58 78
e 65 78
e 70 78
e 74 78
e 75 78
e 1 79
e 8 79
e 17 79
e 31 79
e 36 79
e 37 79
e 38 79
e 43 79
e 48 79
e 50 79
e 61 79
e 62 79
e 76 79
e 77 79
e 1 80
e 2 80
e 5 80
e 7 80
e 9 80
e 19 80
e 20 80
e 23 80
e 24 80
e 25 80
e 26 80
e 38 80
e 39 80
e 48 80
e 50 80
e 53 80
e 57 80
e 61 80
e 71 80
e 1 81
e 9 81
e 13 81
e 15 81
e 19 81
e 23 81
e 33 81
e 40 81
e 51 81
e 55 81
e 59 81
e 60 81
e 63 81
e 73 81
e 2 82
e 11 82
e 18 82
e 20 82
e 21 82
e 35 82
e 38 82
e 39 82
e 44 82
e 46 82
e 66 82
e 68 82
e 78 82
e 13 83
e 21 83
e 23 83
e 30 83
e 31 83
e 48 83
e 58 83
e 69 83
e 71 83
e 78 83
e 81 83
e 7 84
e 8 84
e 15 84
e 20 84
e 25 84
e 26 84
e 29 84
e 32 84
e 34 84
e 43 84
e 45 84
e 71 84
e 74 84
e 1 85
e 4 85
e 8 85
e 10 85
e 16 85
e 24 85
e 25 85
e 28 85
e 49 85
e 54 85
e 58 85
e 66 85
e 68 85
e 70 85
e 79 85
e 3 86
e 10 86
e 11 86
e 13 86
e 24 86
e 29 86
e 34 86
e 35 86
e 40 86
e 41 86
e 44 86
e 48 86
e 51 86
e 52 86
e 55 86
e 61 86
e 65 86
e 68 86
e 69 86
e 71 86
e 80 86
e 83 86
e 15 87
e 23 87
e 29 87
e 34 87
e 39 87
e 42 87
e 44 87
e 46 87
e 49 87
e 64 87
e 65 87
e 66 87
e 67 87
e 71 87
e 72 87
e 73 87
e 76 87
e 77 87
e 3 88
e 7 88
e 15 88
e 21 88
e 24 88
e 28 88
e 40 88
e 42 88
e 44 88
e 54 88
e 64 88
e 68 88
e 70 88
e 85 88
e 2 89
e 31 89
e 51 89
e 64 89
e 68 89
e 80 89
e 84 89
e 6 90
e 9 90
e 13 90
e 16 90
e 17 90
e 20 90
e 21 90
e 24 90
e 26 90
e 30 90
e 49 90
e 56 90
e 59 90
e 60 90
e 63 90
e 67 90
e 68 90
e 77 90
e 85 90
